21

C         33.56700       32.29600       95.40500
C         34.65800       31.59800       96.23800
C         35.94600       31.53300       95.41400
C         35.62900       30.76700       94.14100
C         34.53500       31.49800       93.37100
O         34.89300       32.32000       97.43700
O         36.95500       30.85100       96.14400
O         36.78900       30.63900       93.31300
O         33.35200       31.58200       94.18300
C         36.70600       29.61700       92.38600
C         37.94000       29.61100       91.50700
C         37.80700       28.47300       90.50000
C         37.65500       27.15400       91.26800
C         36.42600       27.25000       92.17300
O         38.00500       30.85700       90.82700
O         38.97600       28.42800       89.69900
O         37.46800       26.09100       90.34500
O         36.57100       28.36400       93.08300
N         32.30600       32.28600       96.12300
N         31.31300       32.73500       95.57700
N         30.39300       33.15000       95.05600
